(set-logic ALL)
(set-option :produce-models true)
(define-fun-rec str.toLower ((x String)) String
  (ite (= x "")
      ""
      (let ((Head (str.at x 0)))
        (str.++ 
          (ite (and (<= 65 (str.to_code Head)) 
                     (<= (str.to_code Head) 90))
               (str.from_code (+ (str.to_code Head) 32))
               Head)
          (str.toLower (str.substr x 1 (- (str.len x) 1)))))))
(declare-fun sym5291 () String)
(declare-fun sym6323 () String)
(declare-fun sym6944 () String)
(declare-fun sym5909 () String)
(declare-fun sym209 () String)
(declare-fun sym4859 () String)
(declare-fun sym2756 () String)
(declare-fun sym4657 () String)
(declare-fun sym5700 () String)
(declare-fun sym2331 () String)
(declare-fun sym4014 () String)
(declare-fun sym2110 () String)
(declare-fun sym1461 () String)
(declare-fun sym3164 () String)
(declare-fun sym161 () String)
(declare-fun sym3380 () String)
(declare-fun sym7024 () String)
(declare-fun sym6530 () String)
(declare-fun sym6116 () String)
(declare-fun sym811 () String)
(declare-fun sym6737 () String)
(declare-fun sym1677 () String)
(declare-fun sym551 () String)
(declare-fun sym2544 () String)
(declare-fun sym2962 () String)
(declare-fun sym3798 () String)
(declare-fun sym1893 () String)
(declare-fun sym4226 () String)
(declare-fun sym1036 () String)
(declare-fun sym3596 () String)
(declare-fun sym4441 () String)
(declare-fun sym1252 () String)
(declare-fun sym5075 () String)
(declare-fun sym5493 () String)

(assert (not (= "" sym5075 )))
(assert (not (= "" sym3380 )))
(assert (not (= (str.toLower (str.substr sym2544  0 1))"q" )))
(assert (not (= (str.toLower (str.substr sym3798  0 1))"q" )))
(assert (not (= (str.toLower (str.substr sym5700  0 1))"k" )))
(assert (not (= (str.toLower (str.substr sym2110  0 1))"k" )))
(assert (not (= "" sym209 )))
(assert (not (= (str.toLower (str.substr sym4441  0 1))"p" )))
(assert (= (str.toLower (str.substr sym6323  0 1))"k" ))
(assert (= (str.toLower (str.substr sym2756  0 1))"g" ))
(assert (not (= (str.toLower (str.substr sym7024  0 1))"y" )))
(assert (not (= (str.toLower (str.substr sym811  0 1))"q" )))
(assert (not (= (str.toLower (str.substr sym1893  0 1))"k" )))
(assert (not (= (str.toLower (str.substr sym6944  0 1))"q" )))
(assert (not (= (str.toLower (str.substr sym4859  0 1))"q" )))
(assert (not (= (str.toLower (str.substr sym1252  0 1))"q" )))
(assert (not (= (str.toLower (str.substr sym1677  0 1))"q" )))
(assert (not (= (str.toLower (str.substr sym4226  0 1))"l" )))
(assert (not (= (str.toLower (str.substr sym1252  0 1))"p" )))
(assert (not (= "" (str.toLower (str.substr sym209  0 1)))))
(assert (not (= (str.toLower (str.substr sym5700  0 1))"r" )))
(assert (not (= (str.toLower (str.substr sym3596  0 1))"q" )))
(assert (not (= (str.toLower (str.substr sym6116  0 1))"p" )))
(assert (not (= (str.toLower (str.substr sym5909  0 1))"p" )))
(assert (not (= (str.toLower (str.substr sym5700  0 1))"q" )))
(assert (not (= (str.toLower (str.substr sym4014  0 1))"g" )))
(assert (= (str.toLower (str.substr sym1461  0 1))"g" ))
(assert (= (str.toLower (str.substr sym5493  0 1))"g" ))
(assert (not (= (str.toLower (str.substr sym3164  0 1))"p" )))
(assert (not (= "" sym811 )))
(assert (not (= "" sym6323 )))
(assert (not (= "" sym551 )))
(assert (not (= "" sym5700 )))
(assert (not (= "" "y" )))
(assert (not (= (str.toLower (str.substr sym1252  0 1))"k" )))
(assert (not (= "" "n" )))
(assert (not (= (str.toLower (str.substr sym1461  0 1))"p" )))
(assert (not (= (str.toLower (str.substr sym6737  0 1))"p" )))
(assert (not (= (str.toLower (str.substr sym2110  0 1))"p" )))
(assert (not (= (str.toLower (str.substr sym5291  0 1))"p" )))
(assert (not (= (str.toLower (str.substr sym1461  0 1))"q" )))
(assert (= "" "" ))
(assert (not (= (str.toLower (str.substr sym6323  0 1))"q" )))
(assert (not (= (str.toLower (str.substr sym2962  0 1))"k" )))
(assert (not (= "" sym1252 )))
(assert (= (str.toLower (str.substr sym4859  0 1))"g" ))
(assert (not (= (str.toLower (str.substr sym3380  0 1))"q" )))
(assert (not (= (str.toLower (str.substr sym5700  0 1))"g" )))
(assert (not (= (str.toLower (str.substr sym2544  0 1))"k" )))
(assert (not (= (str.toLower (str.substr sym5075  0 1))"p" )))
(assert (= (str.toLower (str.substr sym5700  0 1))"h" ))
(assert (not (= "" sym2756 )))
(assert (= (str.toLower (str.substr sym209  0 1))"y" ))
(assert (not (= (str.toLower (str.substr sym6530  0 1))"q" )))
(assert (= (str.toLower (str.substr sym6116  0 1))"k" ))
(assert (not (= "" sym1677 )))
(assert (not (= (str.toLower (str.substr sym2544  0 1))"g" )))
(assert (not (= (str.toLower (str.substr sym6323  0 1))"p" )))
(assert (not (= (str.toLower (str.substr sym1893  0 1))"p" )))
(assert (not (= (str.toLower (str.substr sym4226  0 1))"k" )))
(assert (not (= "" "q" )))
(assert (not (= (str.toLower (str.substr sym2962  0 1))"q" )))
(assert (= (str.toLower (str.substr sym1036  0 1))"g" ))
(assert (not (= (str.toLower (str.substr sym6944  0 1))"p" )))
(assert (= (str.toLower (str.substr sym6944  0 1))"k" ))
(assert (not (= "" sym1036 )))
(assert (= (str.toLower (str.substr sym2544  0 1))"l" ))
(assert (= (str.toLower (str.substr sym5075  0 1))"g" ))
(assert (= "" sym161 ))
(assert (= (str.toLower (str.substr sym4657  0 1))"g" ))
(assert (not (= "" sym7024 )))
(assert (not (= (str.toLower (str.substr sym2756  0 1))"p" )))
(assert (= (str.toLower (str.substr sym5291  0 1))"g" ))
(assert (not (= "" sym2544 )))
(assert (not (= (str.toLower (str.substr sym5700  0 1))"p" )))
(assert (not (= (str.toLower (str.substr sym811  0 1))"p" )))
(assert (not (= (str.toLower (str.substr sym6530  0 1))"p" )))
(assert (not (= (str.toLower (str.substr sym1036  0 1))"q" )))
(assert (not (= (str.toLower (str.substr sym3164  0 1))"k" )))
(assert (not (= (str.toLower (str.substr sym3164  0 1))"q" )))
(assert (not (= "" "y" )))
(assert (= (str.toLower (str.substr sym1252  0 1))"g" ))
(assert (not (= "" sym4657 )))
(assert (not (= "" sym3164 )))
(assert (not (= (str.toLower (str.substr sym4441  0 1))"q" )))
(assert (= (str.toLower (str.substr sym811  0 1))"g" ))
(assert (not (= (str.toLower (str.substr sym551  0 1))"p" )))
(assert (not (= (str.toLower (str.substr sym4657  0 1))"k" )))
(assert (not (= "" sym3798 )))
(assert (not (= (str.toLower (str.substr sym5075  0 1))"q" )))
(assert (not (= (str.toLower (str.substr sym5493  0 1))"k" )))
(assert (not (= (str.toLower (str.substr sym4226  0 1))"g" )))
(assert (not (= (str.toLower (str.substr sym2544  0 1))"p" )))
(assert (not (= (str.toLower (str.substr sym551  0 1))"q" )))
(assert (not (= "" sym5493 )))
(assert (= (str.toLower (str.substr sym1677  0 1))"g" ))
(assert (not (= (str.toLower (str.substr sym1677  0 1))"k" )))
(assert (= (str.toLower (str.substr sym6530  0 1))"k" ))
(assert (not (= (str.toLower (str.substr sym4859  0 1))"p" )))
(assert (not (= (str.toLower (str.substr sym2331  0 1))"q" )))
(assert (not (= "" sym1893 )))
(assert (not (= (str.toLower (str.substr sym3798  0 1))"p" )))
(assert (not (= (str.toLower (str.substr sym2331  0 1))"p" )))
(assert (not (= (str.toLower (str.substr sym6116  0 1))"q" )))
(assert (not (= (str.toLower (str.substr sym3798  0 1))"k" )))
(assert (= (str.toLower (str.substr sym3596  0 1))"g" ))
(assert (= (str.toLower (str.substr sym3380  0 1))"g" ))
(assert (not (= "" sym3596 )))
(assert (not (= (str.toLower (str.substr sym1893  0 1))"q" )))
(assert (not (= "" sym6737 )))
(assert (not (= (str.toLower (str.substr sym3380  0 1))"k" )))
(assert (not (= (str.toLower (str.substr sym4014  0 1))"r" )))
(assert (not (= (str.toLower (str.substr sym2110  0 1))"g" )))
(assert (not (= "" sym6944 )))
(assert (not (= (str.toLower (str.substr sym2756  0 1))"k" )))
(assert (not (= (str.toLower (str.substr sym5700  0 1))"l" )))
(assert (not (= (str.toLower (str.substr sym4226  0 1))"q" )))
(assert (not (= "n" "y" )))
(assert (= (str.toLower (str.substr sym1893  0 1))"g" ))
(assert (not (= (str.toLower (str.substr sym811  0 1))"k" )))
(assert (= (str.toLower (str.substr sym2962  0 1))"g" ))
(assert (= (str.toLower (str.substr sym4014  0 1))"l" ))
(assert (not (= (str.toLower (str.substr sym2110  0 1))"q" )))
(assert (not (= (str.toLower (str.substr sym4014  0 1))"p" )))
(assert (not (= (str.toLower (str.substr sym4226  0 1))"p" )))
(assert (not (= (str.toLower (str.substr sym4441  0 1))"k" )))
(assert (not (= "" sym1461 )))
(assert (= (str.toLower (str.substr sym5909  0 1))"k" ))
(assert (not (= "" sym4859 )))
(assert (not (= (str.toLower (str.substr sym3380  0 1))"p" )))
(assert (= (str.toLower (str.substr sym3164  0 1))"g" ))
(assert (not (= (str.toLower (str.substr sym5909  0 1))"q" )))
(assert (not (= "" sym6116 )))
(assert (not (= (str.toLower (str.substr sym1036  0 1))"k" )))
(assert (not (= (str.toLower (str.substr sym2756  0 1))"q" )))
(assert (not (= (str.toLower (str.substr sym4657  0 1))"p" )))
(assert (not (= "" sym2962 )))
(assert (not (= (str.toLower (str.substr sym4014  0 1))"k" )))
(assert (= (str.toLower (str.substr sym4441  0 1))"g" ))
(assert (not (= (str.toLower (str.substr sym1036  0 1))"p" )))
(assert (not (= "" (str.toLower (str.substr sym7024  0 1)))))
(assert (not (= (str.toLower (str.substr sym6737  0 1))"q" )))
(assert (not (= (str.toLower (str.substr sym1461  0 1))"k" )))
(assert (= (str.toLower (str.substr sym4226  0 1))"h" ))
(assert (not (= (str.toLower (str.substr sym4014  0 1))"q" )))
(assert (not (= "" sym6530 )))
(assert (not (= "" sym5291 )))
(assert (not (= (str.toLower (str.substr sym2544  0 1))"r" )))
(assert (not (= (str.toLower (str.substr sym5291  0 1))"q" )))
(assert (not (= "" sym4441 )))
(assert (= "y" "y" ))
(assert (not (= (str.toLower (str.substr sym5493  0 1))"q" )))
(assert (not (= "y" "n" )))
(assert (not (= (str.toLower (str.substr sym2962  0 1))"p" )))
(assert (not (= (str.toLower (str.substr sym5493  0 1))"p" )))
(assert (not (= "" sym5909 )))
(assert (not (= "" sym4014 )))
(assert (not (= "" sym4226 )))
(assert (not (= (str.toLower (str.substr sym2110  0 1))"l" )))
(assert (not (= (str.toLower (str.substr sym1677  0 1))"p" )))
(assert (not (= (str.toLower (str.substr sym5075  0 1))"k" )))
(assert (not (= (str.toLower (str.substr sym5291  0 1))"k" )))
(assert (not (= (str.toLower (str.substr sym3596  0 1))"p" )))
(assert (= (str.toLower (str.substr sym6737  0 1))"k" ))
(assert (not (= (str.toLower (str.substr sym4859  0 1))"k" )))
(assert (= (str.toLower (str.substr sym3798  0 1))"g" ))
(assert (= (str.toLower (str.substr sym2331  0 1))"k" ))
(assert (not (= "" sym2110 )))
(assert (not (= (str.toLower (str.substr sym4657  0 1))"q" )))
(assert (= (str.toLower (str.substr sym2110  0 1))"h" ))
(assert (not (= "" sym2331 )))
(assert (not (= (str.toLower (str.substr sym3596  0 1))"k" )))
(assert (not (= (str.toLower (str.substr sym4226  0 1))"r" )))
(assert (not (= (str.toLower (str.substr sym2110  0 1))"r" )))
(assert (= (str.toLower (str.substr sym551  0 1))"k" ))
(check-sat)
(get-model)
(exit)
